#######################################
### Exact MIP solver for the HHCRSP ###
#######################################
-- Instance file: new-instances/HHCRSP_300_60_72_1.0_C_RC.txt
-- Max threads: 4
-- Time limit: 999999 seconds
-- Use initial solution: No
Trivial flow violations prevented generating 1231648 variables.
Version identifier: 20.1.0.0 | 2020-11-10 | 9bedb6d68
CPXPARAM_Threads                                 4
CPXPARAM_TimeLimit                               999999
Parallel mode: deterministic, using up to 4 threads for concurrent optimization:
 * Starting dual Simplex on 1 thread...
 * Starting Barrier on 3 threads...
Tried aggregator 1 time.
LP Presolve eliminated 49182 rows and 11485 columns.
Reduced LP has 1342406 rows, 1271038 columns, and 31915353 nonzeros.
Presolve time = 37.77 sec. (6945.98 ticks)
Symmetry aggregator did 2206914 additional substitutions.

Iteration log . . .
Iteration:     1   Dual objective     =             0.000000
Iteration:  1330   Dual objective     =           418.333333

Dual crossover.
  Dual:  Fixing 2291 variables.
     2290 DMoves:  Infeasibility  1.59283697e-12  Objective  4.20000000e+02
        0 DMoves:  Infeasibility  8.42215186e-13  Objective  4.20000000e+02
  Dual:  Pushed 26, exchanged 2265.
  Primal:  Fixing 1366 variables.
     1365 PMoves:  Infeasibility  0.00000000e+00  Objective  4.20000000e+02
        0 PMoves:  Infeasibility  0.00000000e+00  Objective  4.20000000e+02
  Primal:  Pushed 1206, exchanged 160.

Dual simplex solved model.


Solution status from MIP model:
-- Processing time: 61.739 sec.
-- Memory used: 1178.43 MB
-- Best bound: inf
-- Obj value: 420
-- Gap: inf%
-- Total distance: 1260
-- Total tardiness: 0
-- Largest tardiness: 0
